p edge 2279 2234
e 1 2
e 1 3
e 1 4
e 1 5
e 1 6
e 1 7
e 1 8
e 1 9
e 1 10
e 1 11
e 1 12
e 1 13
e 1 14
e 1 15
e 1 16
e 1 17
e 1 18
e 1 19
e 1 20
e 1 21
e 1 22
e 1 23
e 1 24
e 1 25
e 1 26
e 1 27
e 1 28
e 1 29
e 1 30
e 1 31
e 1 32
e 1 33
e 1 34
e 1 35
e 1 36
e 1 37
e 1 38
e 1 39
e 1 40
e 1 41
e 1 42
e 1 43
e 1 44
e 1 45
e 1 46
e 1 47
e 1 48
e 1 49
e 1 50
e 1 51
e 1 52
e 1 53
e 1 54
e 1 55
e 1 56
e 1 57
e 1 58
e 1 59
e 1 60
e 1 61
e 1 62
e 1 63
e 1 64
e 1 65
e 66 67
e 66 68
e 66 69
e 66 70
e 66 71
e 66 72
e 66 73
e 66 74
e 66 75
e 66 76
e 66 77
e 66 78
e 66 79
e 66 80
e 66 81
e 66 82
e 66 83
e 66 84
e 66 85
e 66 86
e 66 87
e 66 88
e 66 89
e 66 90
e 66 91
e 66 92
e 66 93
e 66 94
e 66 95
e 66 96
e 66 97
e 66 98
e 66 99
e 66 100
e 66 101
e 66 102
e 66 103
e 66 104
e 66 105
e 66 106
e 66 107
e 66 108
e 66 109
e 66 110
e 66 111
e 66 112
e 66 113
e 66 114
e 66 115
e 66 116
e 117 118
e 117 119
e 117 120
e 117 121
e 117 122
e 117 123
e 117 124
e 117 125
e 117 126
e 117 127
e 117 128
e 117 129
e 117 130
e 117 131
e 117 132
e 117 133
e 117 134
e 117 135
e 117 136
e 117 137
e 117 138
e 117 139
e 117 140
e 117 141
e 117 142
e 117 143
e 117 144
e 117 145
e 117 146
e 117 147
e 117 148
e 117 149
e 117 150
e 151 152
e 151 153
e 151 154
e 151 155
e 151 156
e 151 157
e 151 158
e 151 159
e 151 160
e 151 161
e 151 162
e 151 163
e 151 164
e 151 165
e 151 166
e 151 167
e 151 168
e 151 169
e 151 170
e 151 171
e 151 172
e 151 173
e 151 174
e 151 175
e 151 176
e 151 177
e 151 178
e 151 179
e 151 180
e 151 181
e 151 182
e 151 183
e 151 184
e 151 185
e 151 186
e 151 187
e 151 188
e 151 189
e 151 190
e 151 191
e 151 192
e 151 193
e 151 194
e 151 195
e 151 196
e 151 197
e 151 198
e 151 199
e 151 200
e 151 201
e 151 202
e 151 203
e 151 204
e 151 205
e 151 206
e 151 207
e 151 208
e 151 209
e 151 210
e 151 211
e 151 212
e 151 213
e 151 214
e 151 215
e 216 217
e 216 218
e 216 219
e 216 220
e 216 221
e 216 222
e 216 223
e 216 224
e 216 225
e 216 226
e 216 227
e 216 228
e 216 229
e 216 230
e 216 231
e 216 232
e 216 233
e 216 234
e 216 235
e 216 236
e 216 237
e 216 238
e 216 239
e 216 240
e 216 241
e 216 242
e 216 243
e 216 244
e 216 245
e 216 246
e 216 247
e 216 248
e 216 249
e 216 250
e 216 251
e 216 252
e 216 253
e 216 254
e 216 255
e 216 256
e 216 257
e 216 258
e 216 259
e 216 260
e 216 261
e 216 262
e 216 263
e 216 264
e 216 265
e 216 266
e 216 267
e 216 268
e 216 269
e 216 270
e 216 271
e 216 272
e 216 273
e 216 274
e 216 275
e 216 276
e 216 277
e 216 278
e 216 279
e 216 280
e 216 281
e 216 282
e 216 283
e 216 284
e 216 285
e 216 286
e 216 287
e 216 288
e 216 289
e 216 290
e 216 291
e 216 292
e 216 293
e 216 294
e 216 295
e 216 296
e 216 297
e 216 298
e 216 299
e 216 300
e 216 301
e 216 302
e 216 303
e 304 305
e 304 306
e 304 307
e 304 308
e 304 309
e 304 310
e 304 311
e 304 312
e 304 313
e 304 314
e 304 315
e 304 316
e 304 317
e 304 318
e 304 319
e 304 320
e 304 321
e 304 322
e 304 323
e 304 324
e 304 325
e 304 326
e 304 327
e 304 328
e 304 329
e 304 330
e 304 331
e 304 332
e 304 333
e 304 334
e 304 335
e 304 336
e 304 337
e 304 338
e 304 339
e 304 340
e 304 341
e 304 342
e 304 343
e 304 344
e 304 345
e 304 346
e 304 347
e 348 349
e 348 350
e 348 351
e 348 352
e 348 353
e 348 354
e 348 355
e 348 356
e 348 357
e 348 358
e 348 359
e 348 360
e 348 361
e 348 362
e 348 363
e 348 364
e 348 365
e 366 367
e 366 368
e 366 369
e 366 370
e 366 371
e 366 372
e 366 373
e 366 374
e 366 375
e 366 376
e 366 377
e 366 378
e 366 379
e 366 380
e 366 381
e 366 382
e 366 383
e 366 384
e 366 385
e 366 386
e 366 387
e 366 388
e 366 389
e 366 390
e 366 391
e 366 392
e 366 393
e 366 394
e 366 395
e 366 396
e 366 397
e 366 398
e 366 399
e 366 400
e 366 401
e 366 402
e 366 403
e 404 405
e 404 406
e 404 407
e 404 408
e 404 409
e 404 410
e 404 411
e 404 412
e 404 413
e 404 414
e 404 415
e 404 416
e 404 417
e 404 418
e 404 419
e 404 420
e 404 421
e 404 422
e 404 423
e 404 424
e 404 425
e 404 426
e 404 427
e 404 428
e 404 429
e 404 430
e 404 431
e 404 432
e 404 433
e 404 434
e 404 435
e 404 436
e 404 437
e 404 438
e 404 439
e 404 440
e 404 441
e 404 442
e 404 443
e 404 444
e 404 445
e 404 446
e 404 447
e 404 448
e 404 449
e 404 450
e 404 451
e 404 452
e 404 453
e 404 454
e 404 455
e 404 456
e 457 458
e 457 459
e 457 460
e 457 461
e 457 462
e 457 463
e 457 464
e 457 465
e 457 466
e 457 467
e 457 468
e 457 469
e 457 470
e 457 471
e 457 472
e 457 473
e 457 474
e 457 475
e 457 476
e 457 477
e 457 478
e 457 479
e 457 480
e 457 481
e 457 482
e 457 483
e 457 484
e 457 485
e 457 486
e 457 487
e 457 488
e 457 489
e 457 490
e 457 491
e 457 492
e 457 493
e 457 494
e 457 495
e 457 496
e 457 497
e 457 498
e 457 499
e 457 500
e 457 501
e 457 502
e 457 503
e 457 504
e 457 505
e 457 506
e 457 507
e 457 508
e 457 509
e 457 510
e 457 511
e 457 512
e 457 513
e 457 514
e 457 515
e 457 516
e 457 517
e 457 518
e 457 519
e 457 520
e 457 521
e 457 522
e 457 523
e 457 524
e 525 526
e 525 527
e 525 528
e 525 529
e 525 530
e 525 531
e 525 532
e 525 533
e 525 534
e 525 535
e 525 536
e 525 537
e 525 538
e 525 539
e 525 540
e 525 541
e 525 542
e 525 543
e 525 544
e 525 545
e 525 546
e 525 547
e 525 548
e 525 549
e 525 550
e 525 551
e 525 552
e 525 553
e 525 554
e 525 555
e 525 556
e 525 557
e 525 558
e 525 559
e 525 560
e 525 561
e 525 562
e 525 563
e 525 564
e 525 565
e 525 566
e 525 567
e 525 568
e 525 569
e 525 570
e 525 571
e 525 572
e 525 573
e 525 574
e 525 575
e 525 576
e 525 577
e 525 578
e 525 579
e 525 580
e 525 581
e 582 583
e 582 584
e 582 585
e 582 586
e 582 587
e 582 588
e 582 589
e 582 590
e 582 591
e 582 592
e 582 593
e 582 594
e 582 595
e 582 596
e 582 597
e 582 598
e 582 599
e 582 600
e 582 601
e 582 602
e 582 603
e 582 604
e 582 605
e 582 606
e 582 607
e 582 608
e 582 609
e 582 610
e 582 611
e 582 612
e 582 613
e 582 614
e 582 615
e 582 616
e 582 617
e 582 618
e 582 619
e 582 620
e 582 621
e 582 622
e 582 623
e 582 624
e 582 625
e 582 626
e 582 627
e 582 628
e 582 629
e 582 630
e 582 631
e 582 632
e 582 633
e 582 634
e 582 635
e 582 636
e 582 637
e 582 638
e 582 639
e 582 640
e 582 641
e 582 642
e 582 643
e 582 644
e 582 645
e 582 646
e 582 647
e 582 648
e 649 650
e 649 651
e 649 652
e 649 653
e 649 654
e 649 655
e 649 656
e 649 657
e 649 658
e 649 659
e 649 660
e 649 661
e 649 662
e 649 663
e 649 664
e 649 665
e 649 666
e 649 667
e 649 668
e 649 669
e 649 670
e 649 671
e 649 672
e 649 673
e 649 674
e 649 675
e 649 676
e 649 677
e 649 678
e 649 679
e 649 680
e 649 681
e 649 682
e 649 683
e 649 684
e 649 685
e 649 686
e 649 687
e 688 689
e 688 690
e 688 691
e 688 692
e 688 693
e 688 694
e 688 695
e 688 696
e 688 697
e 688 698
e 688 699
e 688 700
e 688 701
e 688 702
e 688 703
e 688 704
e 688 705
e 688 706
e 688 707
e 688 708
e 688 709
e 688 710
e 688 711
e 688 712
e 688 713
e 688 714
e 688 715
e 688 716
e 688 717
e 688 718
e 688 719
e 688 720
e 688 721
e 688 722
e 688 723
e 688 724
e 688 725
e 688 726
e 688 727
e 728 729
e 728 730
e 728 731
e 728 732
e 728 733
e 728 734
e 728 735
e 728 736
e 728 737
e 728 738
e 728 739
e 728 740
e 728 741
e 728 742
e 728 743
e 728 744
e 745 746
e 745 747
e 745 748
e 745 749
e 745 750
e 745 751
e 745 752
e 745 753
e 745 754
e 745 755
e 745 756
e 757 758
e 757 759
e 757 760
e 757 761
e 757 762
e 757 763
e 757 764
e 757 765
e 757 766
e 757 767
e 757 768
e 757 769
e 757 770
e 757 771
e 757 772
e 757 773
e 757 774
e 757 775
e 757 776
e 757 777
e 757 778
e 757 779
e 757 780
e 757 781
e 757 782
e 757 783
e 757 784
e 757 785
e 757 786
e 757 787
e 757 788
e 757 789
e 757 790
e 757 791
e 757 792
e 757 793
e 757 794
e 757 795
e 757 796
e 757 797
e 757 798
e 757 799
e 757 800
e 757 801
e 757 802
e 757 803
e 757 804
e 757 805
e 757 806
e 757 807
e 757 808
e 757 809
e 757 810
e 757 811
e 757 812
e 757 813
e 757 814
e 757 815
e 757 816
e 757 817
e 757 818
e 757 819
e 757 820
e 757 821
e 757 822
e 757 823
e 757 824
e 757 825
e 757 826
e 757 827
e 757 828
e 757 829
e 757 830
e 757 831
e 757 832
e 757 833
e 757 834
e 757 835
e 757 836
e 757 837
e 838 839
e 838 840
e 838 841
e 838 842
e 838 843
e 838 844
e 838 845
e 838 846
e 838 847
e 838 848
e 838 849
e 838 850
e 838 851
e 838 852
e 838 853
e 838 854
e 838 855
e 838 856
e 838 857
e 838 858
e 838 859
e 838 860
e 838 861
e 838 862
e 838 863
e 838 864
e 838 865
e 838 866
e 838 867
e 838 868
e 838 869
e 838 870
e 838 871
e 838 872
e 838 873
e 838 874
e 838 875
e 838 876
e 838 877
e 838 878
e 838 879
e 838 880
e 838 881
e 838 882
e 838 883
e 838 884
e 838 885
e 838 886
e 838 887
e 838 888
e 838 889
e 838 890
e 838 891
e 838 892
e 838 893
e 838 894
e 838 895
e 838 896
e 838 897
e 838 898
e 838 899
e 838 900
e 838 901
e 838 902
e 838 903
e 838 904
e 838 905
e 906 907
e 906 908
e 906 909
e 906 910
e 906 911
e 906 912
e 906 913
e 906 914
e 906 915
e 906 916
e 906 917
e 906 918
e 906 919
e 906 920
e 906 921
e 906 922
e 906 923
e 906 924
e 906 925
e 906 926
e 906 927
e 906 928
e 906 929
e 906 930
e 906 931
e 906 932
e 906 933
e 906 934
e 906 935
e 906 936
e 906 937
e 906 938
e 906 939
e 906 940
e 906 941
e 906 942
e 906 943
e 906 944
e 906 945
e 906 946
e 906 947
e 906 948
e 906 949
e 906 950
e 906 951
e 906 952
e 906 953
e 906 954
e 906 955
e 906 956
e 906 957
e 906 958
e 906 959
e 960 961
e 960 962
e 960 963
e 960 964
e 960 965
e 960 966
e 960 967
e 960 968
e 960 969
e 960 970
e 960 971
e 960 972
e 960 973
e 960 974
e 960 975
e 976 977
e 976 978
e 976 979
e 976 980
e 976 981
e 976 982
e 976 983
e 976 984
e 976 985
e 976 986
e 976 987
e 976 988
e 976 989
e 976 990
e 976 991
e 976 992
e 976 993
e 976 994
e 976 995
e 976 996
e 976 997
e 976 998
e 976 999
e 976 1000
e 976 1001
e 976 1002
e 976 1003
e 976 1004
e 976 1005
e 976 1006
e 976 1007
e 976 1008
e 976 1009
e 976 1010
e 976 1011
e 976 1012
e 976 1013
e 976 1014
e 976 1015
e 976 1016
e 976 1017
e 976 1018
e 976 1019
e 976 1020
e 976 1021
e 976 1022
e 976 1023
e 976 1024
e 976 1025
e 976 1026
e 976 1027
e 976 1028
e 976 1029
e 976 1030
e 976 1031
e 976 1032
e 976 1033
e 976 1034
e 976 1035
e 976 1036
e 976 1037
e 976 1038
e 976 1039
e 976 1040
e 976 1041
e 976 1042
e 976 1043
e 976 1044
e 976 1045
e 976 1046
e 1047 1048
e 1047 1049
e 1047 1050
e 1047 1051
e 1047 1052
e 1047 1053
e 1047 1054
e 1047 1055
e 1047 1056
e 1047 1057
e 1047 1058
e 1047 1059
e 1047 1060
e 1047 1061
e 1047 1062
e 1047 1063
e 1047 1064
e 1047 1065
e 1047 1066
e 1047 1067
e 1047 1068
e 1047 1069
e 1047 1070
e 1047 1071
e 1047 1072
e 1047 1073
e 1047 1074
e 1047 1075
e 1047 1076
e 1047 1077
e 1047 1078
e 1047 1079
e 1047 1080
e 1047 1081
e 1047 1082
e 1047 1083
e 1047 1084
e 1047 1085
e 1047 1086
e 1047 1087
e 1047 1088
e 1047 1089
e 1047 1090
e 1047 1091
e 1047 1092
e 1047 1093
e 1047 1094
e 1095 1096
e 1095 1097
e 1095 1098
e 1095 1099
e 1095 1100
e 1095 1101
e 1095 1102
e 1095 1103
e 1095 1104
e 1095 1105
e 1095 1106
e 1095 1107
e 1095 1108
e 1095 1109
e 1095 1110
e 1095 1111
e 1095 1112
e 1095 1113
e 1095 1114
e 1095 1115
e 1116 1117
e 1116 1118
e 1116 1119
e 1116 1120
e 1116 1121
e 1116 1122
e 1116 1123
e 1116 1124
e 1116 1125
e 1116 1126
e 1116 1127
e 1116 1128
e 1116 1129
e 1116 1130
e 1116 1131
e 1116 1132
e 1116 1133
e 1116 1134
e 1116 1135
e 1116 1136
e 1116 1137
e 1116 1138
e 1116 1139
e 1116 1140
e 1116 1141
e 1116 1142
e 1116 1143
e 1116 1144
e 1116 1145
e 1116 1146
e 1116 1147
e 1116 1148
e 1116 1149
e 1116 1150
e 1116 1151
e 1116 1152
e 1116 1153
e 1116 1154
e 1116 1155
e 1116 1156
e 1116 1157
e 1116 1158
e 1116 1159
e 1116 1160
e 1116 1161
e 1116 1162
e 1116 1163
e 1116 1164
e 1116 1165
e 1116 1166
e 1116 1167
e 1116 1168
e 1116 1169
e 1116 1170
e 1116 1171
e 1116 1172
e 1116 1173
e 1116 1174
e 1116 1175
e 1116 1176
e 1177 1178
e 1177 1179
e 1177 1180
e 1177 1181
e 1177 1182
e 1177 1183
e 1177 1184
e 1177 1185
e 1177 1186
e 1177 1187
e 1177 1188
e 1177 1189
e 1177 1190
e 1177 1191
e 1177 1192
e 1177 1193
e 1177 1194
e 1177 1195
e 1177 1196
e 1177 1197
e 1177 1198
e 1177 1199
e 1177 1200
e 1177 1201
e 1177 1202
e 1177 1203
e 1177 1204
e 1177 1205
e 1177 1206
e 1177 1207
e 1177 1208
e 1177 1209
e 1177 1210
e 1177 1211
e 1177 1212
e 1177 1213
e 1177 1214
e 1177 1215
e 1177 1216
e 1177 1217
e 1177 1218
e 1177 1219
e 1177 1220
e 1177 1221
e 1177 1222
e 1177 1223
e 1177 1224
e 1177 1225
e 1177 1226
e 1177 1227
e 1177 1228
e 1177 1229
e 1177 1230
e 1177 1231
e 1177 1232
e 1177 1233
e 1177 1234
e 1177 1235
e 1177 1236
e 1177 1237
e 1177 1238
e 1177 1239
e 1177 1240
e 1177 1241
e 1177 1242
e 1177 1243
e 1177 1244
e 1177 1245
e 1177 1246
e 1177 1247
e 1177 1248
e 1177 1249
e 1177 1250
e 1177 1251
e 1177 1252
e 1177 1253
e 1177 1254
e 1177 1255
e 1256 1257
e 1256 1258
e 1256 1259
e 1256 1260
e 1256 1261
e 1256 1262
e 1256 1263
e 1256 1264
e 1256 1265
e 1256 1266
e 1256 1267
e 1256 1268
e 1256 1269
e 1256 1270
e 1256 1271
e 1256 1272
e 1256 1273
e 1256 1274
e 1256 1275
e 1256 1276
e 1256 1277
e 1256 1278
e 1256 1279
e 1256 1280
e 1256 1281
e 1256 1282
e 1256 1283
e 1256 1284
e 1256 1285
e 1256 1286
e 1256 1287
e 1256 1288
e 1256 1289
e 1256 1290
e 1256 1291
e 1256 1292
e 1256 1293
e 1256 1294
e 1256 1295
e 1256 1296
e 1256 1297
e 1256 1298
e 1256 1299
e 1256 1300
e 1256 1301
e 1256 1302
e 1256 1303
e 1256 1304
e 1256 1305
e 1256 1306
e 1256 1307
e 1256 1308
e 1256 1309
e 1256 1310
e 1256 1311
e 1256 1312
e 1256 1313
e 1256 1314
e 1315 1316
e 1315 1317
e 1315 1318
e 1315 1319
e 1315 1320
e 1315 1321
e 1315 1322
e 1315 1323
e 1315 1324
e 1315 1325
e 1315 1326
e 1315 1327
e 1315 1328
e 1315 1329
e 1315 1330
e 1315 1331
e 1315 1332
e 1315 1333
e 1315 1334
e 1315 1335
e 1315 1336
e 1315 1337
e 1315 1338
e 1315 1339
e 1315 1340
e 1315 1341
e 1315 1342
e 1315 1343
e 1315 1344
e 1315 1345
e 1315 1346
e 1315 1347
e 1315 1348
e 1349 1350
e 1349 1351
e 1349 1352
e 1349 1353
e 1349 1354
e 1349 1355
e 1349 1356
e 1349 1357
e 1349 1358
e 1349 1359
e 1349 1360
e 1349 1361
e 1349 1362
e 1349 1363
e 1349 1364
e 1349 1365
e 1349 1366
e 1349 1367
e 1349 1368
e 1349 1369
e 1349 1370
e 1349 1371
e 1349 1372
e 1349 1373
e 1349 1374
e 1349 1375
e 1349 1376
e 1349 1377
e 1349 1378
e 1349 1379
e 1349 1380
e 1349 1381
e 1349 1382
e 1349 1383
e 1349 1384
e 1349 1385
e 1349 1386
e 1349 1387
e 1349 1388
e 1349 1389
e 1349 1390
e 1349 1391
e 1349 1392
e 1349 1393
e 1349 1394
e 1395 1396
e 1395 1397
e 1395 1398
e 1395 1399
e 1395 1400
e 1395 1401
e 1395 1402
e 1395 1403
e 1395 1404
e 1395 1405
e 1395 1406
e 1395 1407
e 1395 1408
e 1395 1409
e 1395 1410
e 1395 1411
e 1395 1412
e 1395 1413
e 1395 1414
e 1395 1415
e 1395 1416
e 1395 1417
e 1395 1418
e 1395 1419
e 1395 1420
e 1395 1421
e 1395 1422
e 1395 1423
e 1395 1424
e 1395 1425
e 1395 1426
e 1395 1427
e 1395 1428
e 1395 1429
e 1395 1430
e 1395 1431
e 1395 1432
e 1395 1433
e 1395 1434
e 1395 1435
e 1395 1436
e 1395 1437
e 1395 1438
e 1395 1439
e 1395 1440
e 1395 1441
e 1395 1442
e 1395 1443
e 1395 1444
e 1395 1445
e 1395 1446
e 1395 1447
e 1395 1448
e 1449 1450
e 1449 1451
e 1449 1452
e 1449 1453
e 1449 1454
e 1449 1455
e 1449 1456
e 1449 1457
e 1449 1458
e 1449 1459
e 1449 1460
e 1461 1462
e 1461 1463
e 1461 1464
e 1461 1465
e 1461 1466
e 1461 1467
e 1461 1468
e 1461 1469
e 1461 1470
e 1461 1471
e 1461 1472
e 1461 1473
e 1461 1474
e 1461 1475
e 1461 1476
e 1461 1477
e 1461 1478
e 1461 1479
e 1461 1480
e 1461 1481
e 1461 1482
e 1461 1483
e 1461 1484
e 1461 1485
e 1461 1486
e 1461 1487
e 1461 1488
e 1461 1489
e 1461 1490
e 1461 1491
e 1461 1492
e 1461 1493
e 1461 1494
e 1461 1495
e 1461 1496
e 1461 1497
e 1461 1498
e 1461 1499
e 1461 1500
e 1461 1501
e 1461 1502
e 1461 1503
e 1461 1504
e 1461 1505
e 1461 1506
e 1461 1507
e 1461 1508
e 1461 1509
e 1461 1510
e 1461 1511
e 1461 1512
e 1461 1513
e 1461 1514
e 1461 1515
e 1461 1516
e 1461 1517
e 1461 1518
e 1461 1519
e 1461 1520
e 1461 1521
e 1461 1522
e 1461 1523
e 1461 1524
e 1461 1525
e 1461 1526
e 1527 1528
e 1527 1529
e 1527 1530
e 1527 1531
e 1527 1532
e 1527 1533
e 1527 1534
e 1527 1535
e 1527 1536
e 1527 1537
e 1527 1538
e 1527 1539
e 1527 1540
e 1527 1541
e 1527 1542
e 1527 1543
e 1527 1544
e 1527 1545
e 1527 1546
e 1527 1547
e 1527 1548
e 1527 1549
e 1527 1550
e 1527 1551
e 1527 1552
e 1527 1553
e 1527 1554
e 1527 1555
e 1527 1556
e 1527 1557
e 1527 1558
e 1527 1559
e 1527 1560
e 1527 1561
e 1527 1562
e 1527 1563
e 1527 1564
e 1527 1565
e 1527 1566
e 1527 1567
e 1527 1568
e 1527 1569
e 1527 1570
e 1527 1571
e 1527 1572
e 1527 1573
e 1527 1574
e 1527 1575
e 1576 1577
e 1576 1578
e 1576 1579
e 1576 1580
e 1576 1581
e 1576 1582
e 1576 1583
e 1576 1584
e 1576 1585
e 1576 1586
e 1576 1587
e 1576 1588
e 1576 1589
e 1576 1590
e 1576 1591
e 1576 1592
e 1576 1593
e 1576 1594
e 1576 1595
e 1576 1596
e 1576 1597
e 1576 1598
e 1576 1599
e 1576 1600
e 1576 1601
e 1576 1602
e 1576 1603
e 1576 1604
e 1576 1605
e 1576 1606
e 1576 1607
e 1576 1608
e 1576 1609
e 1576 1610
e 1576 1611
e 1576 1612
e 1576 1613
e 1576 1614
e 1576 1615
e 1576 1616
e 1576 1617
e 1576 1618
e 1576 1619
e 1576 1620
e 1576 1621
e 1576 1622
e 1576 1623
e 1576 1624
e 1576 1625
e 1576 1626
e 1576 1627
e 1576 1628
e 1576 1629
e 1576 1630
e 1576 1631
e 1576 1632
e 1576 1633
e 1576 1634
e 1576 1635
e 1576 1636
e 1576 1637
e 1576 1638
e 1576 1639
e 1576 1640
e 1576 1641
e 1576 1642
e 1576 1643
e 1576 1644
e 1576 1645
e 1576 1646
e 1576 1647
e 1576 1648
e 1576 1649
e 1576 1650
e 1576 1651
e 1576 1652
e 1576 1653
e 1576 1654
e 1576 1655
e 1576 1656
e 1576 1657
e 1576 1658
e 1576 1659
e 1576 1660
e 1576 1661
e 1576 1662
e 1576 1663
e 1576 1664
e 1576 1665
e 1576 1666
e 1667 1668
e 1667 1669
e 1667 1670
e 1667 1671
e 1667 1672
e 1667 1673
e 1667 1674
e 1667 1675
e 1667 1676
e 1667 1677
e 1667 1678
e 1667 1679
e 1667 1680
e 1667 1681
e 1667 1682
e 1667 1683
e 1667 1684
e 1667 1685
e 1667 1686
e 1667 1687
e 1667 1688
e 1667 1689
e 1667 1690
e 1667 1691
e 1667 1692
e 1667 1693
e 1667 1694
e 1667 1695
e 1667 1696
e 1667 1697
e 1667 1698
e 1667 1699
e 1667 1700
e 1667 1701
e 1667 1702
e 1667 1703
e 1667 1704
e 1667 1705
e 1667 1706
e 1667 1707
e 1667 1708
e 1667 1709
e 1667 1710
e 1667 1711
e 1667 1712
e 1667 1713
e 1667 1714
e 1667 1715
e 1667 1716
e 1667 1717
e 1667 1718
e 1667 1719
e 1667 1720
e 1667 1721
e 1667 1722
e 1667 1723
e 1667 1724
e 1667 1725
e 1667 1726
e 1667 1727
e 1728 1729
e 1728 1730
e 1728 1731
e 1728 1732
e 1728 1733
e 1728 1734
e 1728 1735
e 1728 1736
e 1728 1737
e 1728 1738
e 1728 1739
e 1728 1740
e 1728 1741
e 1728 1742
e 1728 1743
e 1728 1744
e 1728 1745
e 1728 1746
e 1728 1747
e 1728 1748
e 1728 1749
e 1728 1750
e 1728 1751
e 1728 1752
e 1728 1753
e 1728 1754
e 1728 1755
e 1728 1756
e 1728 1757
e 1728 1758
e 1728 1759
e 1728 1760
e 1728 1761
e 1728 1762
e 1728 1763
e 1728 1764
e 1728 1765
e 1728 1766
e 1728 1767
e 1728 1768
e 1728 1769
e 1728 1770
e 1728 1771
e 1728 1772
e 1728 1773
e 1728 1774
e 1728 1775
e 1728 1776
e 1728 1777
e 1728 1778
e 1728 1779
e 1728 1780
e 1728 1781
e 1728 1782
e 1728 1783
e 1728 1784
e 1728 1785
e 1728 1786
e 1728 1787
e 1728 1788
e 1728 1789
e 1728 1790
e 1728 1791
e 1728 1792
e 1728 1793
e 1728 1794
e 1728 1795
e 1728 1796
e 1728 1797
e 1728 1798
e 1728 1799
e 1728 1800
e 1728 1801
e 1728 1802
e 1728 1803
e 1728 1804
e 1728 1805
e 1728 1806
e 1728 1807
e 1728 1808
e 1728 1809
e 1728 1810
e 1728 1811
e 1728 1812
e 1728 1813
e 1728 1814
e 1728 1815
e 1728 1816
e 1817 1818
e 1817 1819
e 1817 1820
e 1817 1821
e 1817 1822
e 1817 1823
e 1817 1824
e 1817 1825
e 1817 1826
e 1817 1827
e 1817 1828
e 1817 1829
e 1817 1830
e 1817 1831
e 1817 1832
e 1817 1833
e 1817 1834
e 1817 1835
e 1817 1836
e 1817 1837
e 1817 1838
e 1817 1839
e 1817 1840
e 1817 1841
e 1817 1842
e 1817 1843
e 1817 1844
e 1817 1845
e 1817 1846
e 1817 1847
e 1817 1848
e 1817 1849
e 1817 1850
e 1817 1851
e 1817 1852
e 1817 1853
e 1817 1854
e 1817 1855
e 1817 1856
e 1817 1857
e 1817 1858
e 1817 1859
e 1817 1860
e 1817 1861
e 1817 1862
e 1817 1863
e 1817 1864
e 1817 1865
e 1817 1866
e 1817 1867
e 1817 1868
e 1817 1869
e 1870 1871
e 1870 1872
e 1870 1873
e 1870 1874
e 1870 1875
e 1870 1876
e 1870 1877
e 1870 1878
e 1870 1879
e 1870 1880
e 1870 1881
e 1870 1882
e 1870 1883
e 1870 1884
e 1870 1885
e 1870 1886
e 1870 1887
e 1870 1888
e 1870 1889
e 1870 1890
e 1870 1891
e 1870 1892
e 1870 1893
e 1870 1894
e 1870 1895
e 1870 1896
e 1870 1897
e 1870 1898
e 1870 1899
e 1900 1901
e 1900 1902
e 1900 1903
e 1900 1904
e 1900 1905
e 1900 1906
e 1900 1907
e 1900 1908
e 1900 1909
e 1900 1910
e 1900 1911
e 1900 1912
e 1900 1913
e 1900 1914
e 1900 1915
e 1900 1916
e 1900 1917
e 1900 1918
e 1900 1919
e 1900 1920
e 1900 1921
e 1900 1922
e 1900 1923
e 1924 1925
e 1924 1926
e 1924 1927
e 1924 1928
e 1924 1929
e 1924 1930
e 1924 1931
e 1924 1932
e 1924 1933
e 1924 1934
e 1924 1935
e 1924 1936
e 1924 1937
e 1924 1938
e 1924 1939
e 1924 1940
e 1924 1941
e 1924 1942
e 1924 1943
e 1924 1944
e 1924 1945
e 1924 1946
e 1924 1947
e 1924 1948
e 1924 1949
e 1924 1950
e 1951 1952
e 1951 1953
e 1951 1954
e 1951 1955
e 1951 1956
e 1951 1957
e 1951 1958
e 1951 1959
e 1951 1960
e 1951 1961
e 1951 1962
e 1951 1963
e 1951 1964
e 1951 1965
e 1951 1966
e 1951 1967
e 1951 1968
e 1951 1969
e 1951 1970
e 1951 1971
e 1951 1972
e 1951 1973
e 1951 1974
e 1951 1975
e 1951 1976
e 1951 1977
e 1951 1978
e 1951 1979
e 1951 1980
e 1951 1981
e 1951 1982
e 1951 1983
e 1951 1984
e 1951 1985
e 1951 1986
e 1951 1987
e 1951 1988
e 1951 1989
e 1951 1990
e 1951 1991
e 1951 1992
e 1951 1993
e 1951 1994
e 1951 1995
e 1951 1996
e 1997 1998
e 1997 1999
e 1997 2000
e 1997 2001
e 1997 2002
e 1997 2003
e 1997 2004
e 1997 2005
e 1997 2006
e 1997 2007
e 1997 2008
e 1997 2009
e 1997 2010
e 1997 2011
e 1997 2012
e 1997 2013
e 1997 2014
e 1997 2015
e 1997 2016
e 1997 2017
e 1997 2018
e 1997 2019
e 1997 2020
e 1997 2021
e 1997 2022
e 1997 2023
e 1997 2024
e 1997 2025
e 1997 2026
e 1997 2027
e 1997 2028
e 1997 2029
e 1997 2030
e 1997 2031
e 1997 2032
e 1997 2033
e 1997 2034
e 1997 2035
e 1997 2036
e 1997 2037
e 1997 2038
e 1997 2039
e 1997 2040
e 1997 2041
e 1997 2042
e 1997 2043
e 1997 2044
e 1997 2045
e 1997 2046
e 1997 2047
e 1997 2048
e 1997 2049
e 1997 2050
e 1997 2051
e 1997 2052
e 1997 2053
e 1997 2054
e 1997 2055
e 1997 2056
e 1997 2057
e 1997 2058
e 1997 2059
e 1997 2060
e 1997 2061
e 1997 2062
e 1997 2063
e 1997 2064
e 1997 2065
e 1997 2066
e 1997 2067
e 1997 2068
e 1997 2069
e 1997 2070
e 1997 2071
e 1997 2072
e 1997 2073
e 1997 2074
e 1997 2075
e 1997 2076
e 1997 2077
e 1997 2078
e 1997 2079
e 1997 2080
e 1997 2081
e 2082 2083
e 2082 2084
e 2082 2085
e 2082 2086
e 2082 2087
e 2082 2088
e 2082 2089
e 2082 2090
e 2082 2091
e 2082 2092
e 2082 2093
e 2082 2094
e 2082 2095
e 2082 2096
e 2082 2097
e 2082 2098
e 2082 2099
e 2082 2100
e 2082 2101
e 2082 2102
e 2082 2103
e 2082 2104
e 2082 2105
e 2082 2106
e 2082 2107
e 2082 2108
e 2082 2109
e 2082 2110
e 2082 2111
e 2082 2112
e 2082 2113
e 2082 2114
e 2082 2115
e 2082 2116
e 2082 2117
e 2082 2118
e 2082 2119
e 2082 2120
e 2082 2121
e 2082 2122
e 2082 2123
e 2082 2124
e 2082 2125
e 2082 2126
e 2082 2127
e 2082 2128
e 2082 2129
e 2082 2130
e 2082 2131
e 2082 2132
e 2082 2133
e 2082 2134
e 2082 2135
e 2082 2136
e 2137 2138
e 2137 2139
e 2137 2140
e 2137 2141
e 2137 2142
e 2137 2143
e 2137 2144
e 2137 2145
e 2137 2146
e 2137 2147
e 2137 2148
e 2137 2149
e 2137 2150
e 2137 2151
e 2137 2152
e 2137 2153
e 2137 2154
e 2137 2155
e 2137 2156
e 2137 2157
e 2137 2158
e 2137 2159
e 2137 2160
e 2137 2161
e 2137 2162
e 2137 2163
e 2137 2164
e 2137 2165
e 2137 2166
e 2137 2167
e 2137 2168
e 2137 2169
e 2137 2170
e 2137 2171
e 2137 2172
e 2137 2173
e 2137 2174
e 2137 2175
e 2137 2176
e 2137 2177
e 2178 2179
e 2178 2180
e 2178 2181
e 2178 2182
e 2178 2183
e 2178 2184
e 2178 2185
e 2178 2186
e 2178 2187
e 2178 2188
e 2178 2189
e 2178 2190
e 2178 2191
e 2178 2192
e 2178 2193
e 2178 2194
e 2178 2195
e 2178 2196
e 2178 2197
e 2178 2198
e 2178 2199
e 2178 2200
e 2178 2201
e 2178 2202
e 2178 2203
e 2178 2204
e 2178 2205
e 2178 2206
e 2178 2207
e 2178 2208
e 2178 2209
e 2210 2211
e 2210 2212
e 2210 2213
e 2210 2214
e 2210 2215
e 2210 2216
e 2210 2217
e 2210 2218
e 2210 2219
e 2210 2220
e 2210 2221
e 2210 2222
e 2210 2223
e 2210 2224
e 2210 2225
e 2210 2226
e 2210 2227
e 2210 2228
e 2210 2229
e 2210 2230
e 2210 2231
e 2210 2232
e 2210 2233
e 2210 2234
e 2210 2235
e 2210 2236
e 2210 2237
e 2210 2238
e 2210 2239
e 2210 2240
e 2210 2241
e 2210 2242
e 2210 2243
e 2210 2244
e 2210 2245
e 2210 2246
e 2210 2247
e 2210 2248
e 2210 2249
e 2210 2250
e 2210 2251
e 2210 2252
e 2210 2253
e 2210 2254
e 2210 2255
e 2210 2256
e 2210 2257
e 2210 2258
e 2210 2259
e 2210 2260
e 2210 2261
e 2210 2262
e 2210 2263
e 2210 2264
e 2210 2265
e 2210 2266
e 2210 2267
e 2210 2268
e 2210 2269
e 2210 2270
e 2210 2271
e 2210 2272
e 2210 2273
e 2210 2274
e 2210 2275
e 2210 2276
e 2210 2277
e 2210 2278
e 2210 2279
